            acell     1.4445357386E+01  1.4445357386E+01  1.4692025011E+01
            rprim     0.0000000000E+00  7.1918127304E-01  6.9482249281E-01
                       7.1918127304E-01  0.0000000000E+00  6.9482249281E-01
                       7.0710678119E-01  7.0710678119E-01  0.0000000000E+00
natom    9  
ntypat   4  
            typat    1 1 4 2 2 2 2 2 3
znucl    55 53 40 17
             xred     2.5109550953E-01  2.5109550953E-01  2.4890449047E-01
                       7.5109550953E-01  7.5109550953E-01  7.4890449047E-01
                       2.4122728674E-01  2.4122728674E-01  7.5877271326E-01
                       7.4586394003E-01  7.4586394003E-01  2.5413605997E-01
                       2.5637561172E-01  7.4285766980E-01  7.4362438828E-01
                       7.4285766980E-01  2.5637561172E-01  7.4362438828E-01
                       2.5637561172E-01  7.4285766980E-01  2.5714233020E-01
                       7.4285766980E-01  2.5637561172E-01  2.5714233020E-01
                       1.2251191089E-02  1.2251191089E-02 -1.2251191089E-02
         
diemac 12.0
ecut 20
ixc -428
kptopt 1
ngkpt 2 2 2
prtden 1
iscf 17
nstep 2500
nshiftk 1
shiftk  0 0 0
nband 42
toldfe 1.0d-8
npkpt 4
#getwfk_filepath "Cs2TiI6i_WFK"
