            acell     1.4082684460E+01  1.4540279366E+01  1.4082684460E+01
            rprim     0.0000000000E+00  6.8335835763E-01  7.3008311517E-01
                       7.0710678119E-01  0.0000000000E+00  7.0710678119E-01
                       7.3008311517E-01  6.8335835763E-01  0.0000000000E+00
natom    9  
ntypat   4
typat    1 1 2 4 4 2 4 4 3   
znucl    55 53 72 17
             xred     2.5000000000E-01  2.5000000000E-01  2.5000000000E-01
                       7.5000000000E-01  7.5000000000E-01  7.5000000000E-01
                       7.2050184683E-01  2.7949815317E-01  7.2050184683E-01
                       2.2472789866E-01  2.2472789866E-01  7.7527210134E-01
                       7.7527210134E-01  7.7527210134E-01  2.2472789866E-01
                       2.7949815317E-01  7.2050184683E-01  2.7949815317E-01
                       2.2472789866E-01  7.7527210134E-01  7.7527210134E-01
                       7.7527210134E-01  2.2472789866E-01  2.2472789866E-01
                      -4.6760684583E-21  7.0457964542E-21 -9.3983503057E-22
diemac 12.0
ecut 20
ixc 32
kptopt 1
ngkpt 12 12 12
prtden 1
iscf 17
nstep 2500
nshiftk 1
shiftk  0 0 0
nband 42
toldfe 1.0d-8
