acell      1.5395086575E+01  1.5613385490E+01  1.5319697685E+01
            rprim      0.0000000000E+00  6.9342247853E-01  7.2053123892E-01
                       7.0374049795E-01  0.0000000000E+00  7.1045711450E-01
                       7.1723162597E-01  6.9683484033E-01  0.0000000000E+00
natom    9  
ntypat   4  
typat 1 1 4 4 2 4 2 2 3
znucl    55 53 72 17

             xred      2.5088168667E-01  2.5088168667E-01  2.4911831333E-01
                       7.5088168667E-01  7.5088168667E-01  7.4911831333E-01
                       7.8914407191E-01  2.2076926456E-01  7.7923073544E-01
                       2.1604370089E-01  2.1604370089E-01  7.8395629911E-01
                       7.6051602299E-01  7.6051602299E-01  2.3948397701E-01
                       2.2076926456E-01  7.8914407191E-01  2.1085592809E-01
                       2.5019163812E-01  7.5299854951E-01  7.4980836188E-01
                       7.5299854951E-01  2.5019163812E-01  2.4700145049E-01
                       8.5733786682E-03  8.5733786682E-03 -8.5733786682E-03
         
diemac 12.0
ecut 16
pawecutdg 40
ixc -101130
kptopt 1
ngkpt 12 12 12
prtden 1
iscf 17
nstep 2500
prtwf 0
nshiftk 1
shiftk 0 0 0
nband 42
toldfe 1.0d-8
