acell      1.5406919125E+01  1.5404955636E+01  1.5406919125E+01
            rprim      0.0000000000E+00  7.0719688479E-01  7.0701666610E-01
                       7.0710678119E-01  0.0000000000E+00  7.0710678119E-01
                       7.0701666610E-01  7.0719688479E-01  0.0000000000E+00
natom    9  
ntypat   4
typat    1 1 2 4 4 2 4 4 3   
      
znucl    55 53 72 35
             xred      2.5000000000E-01  2.5000000000E-01  2.5000000000E-01
                       7.5000000000E-01  7.5000000000E-01  7.5000000000E-01
                       7.4972100668E-01  2.5027899332E-01  7.4972100668E-01
                       2.2713407936E-01  2.2713407936E-01  7.7286592064E-01
                       7.7286592064E-01  7.7286592064E-01  2.2713407936E-01
                       2.5027899332E-01  7.4972100668E-01  2.5027899332E-01
                       2.2713407936E-01  7.7286592064E-01  7.7286592064E-01
                       7.7286592064E-01  2.2713407936E-01  2.2713407936E-01
                      -4.7553031650E-23  3.3855495096E-23  6.5134060560E-23
         
diemac 12.0
ecut 20
ixc 32
kptopt 1
ngkpt 12 12 12
prtden 1
iscf 17
nstep 2500
nshiftk 1
shiftk  0 0 0
nband 42
toldfe 1.0d-8
