            acell     1.4517246772E+01  1.5032241647E+01  1.4517246772E+01
            rprim     0.0000000000E+00  6.8109917037E-01  7.3219117731E-01
                       7.0710678119E-01  0.0000000000E+00  7.0710678119E-01
                       7.3219117731E-01  6.8109917037E-01  0.0000000000E+00
natom    9  
ntypat   4
typat    1 1 4 2 2 4 2 2 3   
znucl    55 53 72 17
             xred     2.5000000000E-01  2.5000000000E-01  2.5000000000E-01
                       7.5000000000E-01  7.5000000000E-01  7.5000000000E-01
                       7.6842146646E-01  2.3157853354E-01  7.6842146646E-01
                       2.5332367387E-01  2.5332367387E-01  7.4667632613E-01
                       7.4667632613E-01  7.4667632613E-01  2.5332367387E-01
                       2.3157853354E-01  7.6842146646E-01  2.3157853354E-01
                       2.5332367387E-01  7.4667632613E-01  7.4667632613E-01
                       7.4667632613E-01  2.5332367387E-01  2.5332367387E-01
                       7.7167141090E-21 -2.0648627824E-20 -2.0799743563E-20
         
diemac 12.0
ecut 20
ixc -428
kptopt 1
ngkpt 2 2 2
prtden 1
iscf 17
nstep 2500
nshiftk 1
shiftk  0 0 0
nband 42
toldfe 1.0d-8
npkpt 4
#getwfk_filepath "Cs2TiI6i_WFK"
