            acell     1.5233602712E+01  1.5233602712E+01  1.5243697339E+01
            rprim     0.0000000000E+00  7.0757534921E-01  7.0663790246E-01
                       7.0757534921E-01  0.0000000000E+00  7.0663790246E-01
                       7.0710678119E-01  7.0710678119E-01  0.0000000000E+00
natom    9  
ntypat   4  
            typat    1 1 4 2 4 4 4 4 3  
znucl    55 53 40 35 
             xred     2.5229007022E-01  2.5229007022E-01  2.4770992978E-01
                       7.5229007022E-01  7.5229007022E-01  7.4770992978E-01
                       2.3657668649E-01  2.3657668649E-01  7.6342331351E-01
                       7.4918122283E-01  7.4918122283E-01  2.5081877717E-01
                       2.3280935822E-01  7.6949358182E-01  7.6719064178E-01
                       7.6949358182E-01  2.3280935822E-01  7.6719064178E-01
                       2.3280935822E-01  7.6949358182E-01  2.3050641818E-01
                       7.6949358182E-01  2.3280935822E-01  2.3050641818E-01
                       5.0560701509E-03  5.0560701509E-03 -5.0560701509E-03
         
diemac 12.0
ecut 20
ixc 32
kptopt 1
ngkpt 12 12 12
prtden 1
iscf 17
nstep 2500
nshiftk 1
shiftk  0 0 0
nband 42
toldfe 1.0d-8
