acell      1.4390214717E+01  1.4390214717E+01  1.4390214717E+01
            rprim      0.0000000000E+00  7.0710678119E-01  7.0710678119E-01
                       7.0710678119E-01  0.0000000000E+00  7.0710678119E-01
                       7.0710678119E-01  7.0710678119E-01  0.0000000000E+00
natom    9  
ntypat   3
typat  1 1 2 2 2 2 2 2 3    
znucl    55 17 72
             xred      2.5000000000E-01  2.5000000000E-01  2.5000000000E-01
                       7.5000000000E-01  7.5000000000E-01  7.5000000000E-01
                       7.7088172388E-01  2.2911827612E-01  7.7088172388E-01
                       2.2911827612E-01  2.2911827612E-01  7.7088172388E-01
                       7.7088172388E-01  7.7088172388E-01  2.2911827612E-01
                       2.2911827612E-01  7.7088172388E-01  2.2911827612E-01
                       2.2911827612E-01  7.7088172388E-01  7.7088172388E-01
                       7.7088172388E-01  2.2911827612E-01  2.2911827612E-01
                      -3.4504614193E-21 -8.1613996339E-22  5.7610986145E-21
         
diemac 12.0
ecut 20
ixc 32
kptopt 1
ngkpt 12 12 12
prtden 1
iscf 17
nstep 2500
nshiftk 1
shiftk  0 0 0
nband 42
toldfe 1.0d-8
