acell      1.6045663836E+01  1.6045663836E+01  1.6045663836E+01
rprim      0.0000000000E+00  0.565685424952 0.565685424952
           0.565685424952 0.0000000000E+00  0.565685424952
           0.565685424952 0.565685424952  0.0000000000E+00  
natom    9  
ntypat   3  
typat    1 1 2 2 2 2 2 2 3  
znucl    55 53 72  
             xred      2.5000000000E-01  2.5000000000E-01  2.5000000000E-01
                       7.5000000000E-01  7.5000000000E-01  7.5000000000E-01
                       7.3261809339E-01  2.6738190661E-01  7.3261809339E-01
                       2.6738190661E-01  2.6738190661E-01  7.3261809339E-01
                       7.3261809339E-01  7.3261809339E-01  2.6738190661E-01
                       2.6738190661E-01  7.3261809339E-01  2.6738190661E-01
                       2.6738190661E-01  7.3261809339E-01  7.3261809339E-01
                       7.3261809339E-01  2.6738190661E-01  2.6738190661E-01
                      -2.2207536573E-19  1.5125272089E-19  5.0094597813E-20
         
diemac 12.0
ecut 16
pawecutdg 40
ixc -101130
kptopt 1
ngkpt 12 12 12
prtden 1
iscf 17
nstep 2500
prtwf 0
nshiftk 1
shiftk 0 0 0
nband 42
toldfe 1.0d-8
