ndtset 9
acell      1.6045663836E+01  1.6045663836E+01  1.6045663836E+01
rprim1 0 0.64983113191361 0.64983113191361
       0.64983113191361 0 0.64983113191361
       0.64983113191361 0.64983113191361 0

rprim2 0 0.64912402513242 0.64912402513242
       0.64912402513242 0 0.64912402513242
       0.64912402513242 0.64912402513242 0

rprim3 0 0.64841691835123 0.64841691835123
       0.64841691835123 0 0.64841691835123
       0.64841691835123 0.64841691835123 0

rprim4 0 0.64770981157004 0.64770981157004
       0.64770981157004 0 0.64770981157004
       0.64770981157004 0.64770981157004 0

rprim5 0 0.64700270478885 0.64700270478885
       0.64700270478885 0 0.64700270478885
       0.64700270478885 0.64700270478885 0

rprim6 0 0.64629559800766 0.64629559800766
       0.64629559800766 0 0.64629559800766
       0.64629559800766 0.64629559800766 0

rprim7 0 0.64558849122647 0.64558849122647
       0.64558849122647 0 0.64558849122647
       0.64558849122647 0.64558849122647 0

rprim8 0 0.64488138444528 0.64488138444528
       0.64488138444528 0 0.64488138444528
       0.64488138444528 0.64488138444528 0

rprim9 0 0.64417427766409 0.64417427766409
       0.64417427766409 0 0.64417427766409
       0.64417427766409 0.64417427766409 0
natom    9  
ntypat   3  
typat    1 1 2 2 2 2 2 2 3  
znucl    55 53 72  
             xred1     2.5000000000E-01  2.5000000000E-01  2.5000000000E-01
                       7.5000000000E-01  7.5000000000E-01  7.5000000000E-01
                       7.4582595756E-01  2.5417404244E-01  7.4582595756E-01
                       2.5417404244E-01  2.5417404244E-01  7.4582595756E-01
                       7.4582595756E-01  7.4582595756E-01  2.5417404244E-01
                       2.5417404244E-01  7.4582595756E-01  2.5417404244E-01
                       2.5417404244E-01  7.4582595756E-01  7.4582595756E-01
                       7.4582595756E-01  2.5417404244E-01  2.5417404244E-01
                      -1.8460246215E-19  1.0894924169E-19 -5.0120747208E-19
             xred2     2.5000000000E-01  2.5000000000E-01  2.5000000000E-01
                       7.5000000000E-01  7.5000000000E-01  7.5000000000E-01
                       7.4566171709E-01  2.5433828291E-01  7.4566171709E-01
                       2.5433828291E-01  2.5433828291E-01  7.4566171709E-01
                       7.4566171709E-01  7.4566171709E-01  2.5433828291E-01
                       2.5433828291E-01  7.4566171709E-01  2.5433828291E-01
                       2.5433828291E-01  7.4566171709E-01  7.4566171709E-01
                       7.4566171709E-01  2.5433828291E-01  2.5433828291E-01
                      -1.5211723053E-19  1.1517206193E-19 -5.2877713551E-19
             xred3     2.5000000000E-01  2.5000000000E-01  2.5000000000E-01
                       7.5000000000E-01  7.5000000000E-01  7.5000000000E-01
                       7.4549800098E-01  2.5450199902E-01  7.4549800098E-01
                       2.5450199902E-01  2.5450199902E-01  7.4549800098E-01
                       7.4549800098E-01  7.4549800098E-01  2.5450199902E-01
                       2.5450199902E-01  7.4549800098E-01  2.5450199902E-01
                       2.5450199902E-01  7.4549800098E-01  7.4549800098E-01
                       7.4549800098E-01  2.5450199902E-01  2.5450199902E-01
                      -1.3574583951E-19  6.9919138285E-20 -5.4381722729E-19
             xred4     2.5000000000E-01  2.5000000000E-01  2.5000000000E-01
                       7.5000000000E-01  7.5000000000E-01  7.5000000000E-01
                       7.4533365073E-01  2.5466634927E-01  7.4533365073E-01
                       2.5466634927E-01  2.5466634927E-01  7.4533365073E-01
                       7.4533365073E-01  7.4533365073E-01  2.5466634927E-01
                       2.5466634927E-01  7.4533365073E-01  2.5466634927E-01
                       2.5466634927E-01  7.4533365073E-01  7.4533365073E-01
                       7.4533365073E-01  2.5466634927E-01  2.5466634927E-01
                      -8.6569532353E-20  1.7543698858E-19 -6.4113785962E-19
             xred5     2.5000000000E-01  2.5000000000E-01  2.5000000000E-01
                       7.5000000000E-01  7.5000000000E-01  7.5000000000E-01
                       7.4517046480E-01  2.5482953520E-01  7.4517046480E-01
                       2.5482953520E-01  2.5482953520E-01  7.4517046480E-01
                       7.4517046480E-01  7.4517046480E-01  2.5482953520E-01
                       2.5482953520E-01  7.4517046480E-01  2.5482953520E-01
                       2.5482953520E-01  7.4517046480E-01  7.4517046480E-01
                       7.4517046480E-01  2.5482953520E-01  2.5482953520E-01
                      -1.5202484665E-19  1.1488176398E-19 -5.2867664760E-19
             xred6     2.5000000000E-01  2.5000000000E-01  2.5000000000E-01
                       7.5000000000E-01  7.5000000000E-01  7.5000000000E-01
                       7.4501021950E-01  2.5498978050E-01  7.4501021950E-01
                       2.5498978050E-01  2.5498978050E-01  7.4501021950E-01
                       7.4501021950E-01  7.4501021950E-01  2.5498978050E-01
                       2.5498978050E-01  7.4501021950E-01  2.5498978050E-01
                       2.5498978050E-01  7.4501021950E-01  7.4501021950E-01
                       7.4501021950E-01  2.5498978050E-01  2.5498978050E-01
                      -1.5210745635E-19  1.1513625341E-19 -5.2870326900E-19
             xred7     2.5000000000E-01  2.5000000000E-01  2.5000000000E-01
                       7.5000000000E-01  7.5000000000E-01  7.5000000000E-01
                       7.4485054929E-01  2.5514945071E-01  7.4485054929E-01
                       2.5514945071E-01  2.5514945071E-01  7.4485054929E-01
                       7.4485054929E-01  7.4485054929E-01  2.5514945071E-01
                       2.5514945071E-01  7.4485054929E-01  2.5514945071E-01
                       2.5514945071E-01  7.4485054929E-01  7.4485054929E-01
                       7.4485054929E-01  2.5514945071E-01  2.5514945071E-01
                      -1.3817556468E-19  1.0286461863E-19 -5.0997134895E-19
             xred8     2.5000000000E-01  2.5000000000E-01  2.5000000000E-01
                       7.5000000000E-01  7.5000000000E-01  7.5000000000E-01
                       7.4469705199E-01  2.5530294801E-01  7.4469705199E-01
                       2.5530294801E-01  2.5530294801E-01  7.4469705199E-01
                       7.4469705199E-01  7.4469705199E-01  2.5530294801E-01
                       2.5530294801E-01  7.4469705199E-01  2.5530294801E-01
                       2.5530294801E-01  7.4469705199E-01  7.4469705199E-01
                       7.4469705199E-01  2.5530294801E-01  2.5530294801E-01
                      -1.9781774817E-19  1.3690054414E-19 -4.9815375712E-19
             xred9     2.5000000000E-01  2.5000000000E-01  2.5000000000E-01
                       7.5000000000E-01  7.5000000000E-01  7.5000000000E-01
                       7.4453798036E-01  2.5546201964E-01  7.4453798036E-01
                       2.5546201964E-01  2.5546201964E-01  7.4453798036E-01
                       7.4453798036E-01  7.4453798036E-01  2.5546201964E-01
                       2.5546201964E-01  7.4453798036E-01  2.5546201964E-01
                       2.5546201964E-01  7.4453798036E-01  7.4453798036E-01
                       7.4453798036E-01  2.5546201964E-01  2.5546201964E-01
                      -1.4930478303E-19  1.1390426262E-19 -5.3299126702E-19
         
diemac 12.0
ecut 16
pawecutdg 40
ixc -101130
kptopt 1
ngkpt 16 16 16
prtden 1
iscf 17
nstep 2500
prtwf 0
nshiftk 1
shiftk 0 0 0
nband 42
toldfe 1.0d-8
