            acell    1.4037830533E+01  1.4037830533E+01  1.4031614709E+01
            rprim    0.0000000000E+00  7.0679368072E-01  7.0741974308E-01
                       7.0679368072E-01  0.0000000000E+00  7.0741974308E-01
                       7.0710678119E-01  7.0710678119E-01  0.0000000000E+00
natom    9  
ntypat   4  
            typat    1 1 4 2 4 4 4 4 3  
znucl    55 53 40 35 
             xred    2.5191947838E-01  2.5191947838E-01  2.4808052162E-01
                       7.5191947838E-01  7.5191947838E-01  7.4808052162E-01
                       2.5446681767E-01  2.5446681767E-01  7.4553318233E-01
                       7.3663483221E-01  7.3663483221E-01  2.6336516779E-01
                       2.4807275964E-01  7.5126272485E-01  7.5192724036E-01
                       7.5126272485E-01  2.4807275964E-01  7.5192724036E-01
                       2.4807275964E-01  7.5126272485E-01  2.4873727515E-01
                       7.5126272485E-01  2.4807275964E-01  2.4873727515E-01
                       6.3884244018E-03  6.3884244018E-03 -6.3884244018E-03
         
diemac 12.0
ecut 20
ixc -428
kptopt 1
ngkpt 2 2 2
prtden 1
iscf 17
nstep 2500
nshiftk 1
shiftk  0 0 0
nband 42
toldfe 1.0d-8
npkpt 4
#getwfk_filepath "Cs2TiI6i_WFK"
