            acell     1.5685736562E+01  1.5685736562E+01  1.5965207074E+01
            rprim     0.0000000000E+00  7.1970520099E-01  6.9427978774E-01
                       7.1970520099E-01  0.0000000000E+00  6.9427978774E-01
                       7.0710678119E-01  7.0710678119E-01  0.0000000000E+00
natom    9  
ntypat   4  

            typat    1 1 4 4 2 2 2 2 3

        
znucl    55 53 40 35 
             xred     2.5000000000E-01  2.5000000000E-01  2.5000000000E-01
                       7.5000000000E-01  7.5000000000E-01  7.5000000000E-01
                       2.2738387444E-01  2.2738387444E-01  7.7261612556E-01
                       7.7261612556E-01  7.7261612556E-01  2.2738387444E-01
                       2.4259334811E-01  7.5740665189E-01  7.5740665189E-01
                       7.5740665189E-01  2.4259334811E-01  7.5740665189E-01
                       2.4259334811E-01  7.5740665189E-01  2.4259334811E-01
                       7.5740665189E-01  2.4259334811E-01  2.4259334811E-01
                      -5.4575994689E-21  2.8665548261E-21  3.4384485616E-21
         
diemac 12.0
ecut 16
pawecutdg 40
ixc -101130
kptopt 1
ngkpt 12 12 12
prtden 1
iscf 17
nstep 2500
prtwf 0
nshiftk 1
shiftk 0 0 0
nband 42
toldfe 1.0d-8
