acell      1.6045663836E+01  1.6045663836E+01  1.6045663836E+01
rprim      0.0000000000E+00  0.6576093065067 0.6576093065067
           0.6576093065067  0.0000000000E+00 0.6576093065067
           0.6576093065067 0.6576093065067  0.0000000000E+00 
natom    9  
ntypat   3  
typat    1 1 2 2 2 2 2 2 3  
znucl    55 53 72  
             xred      2.5000000000E-01  2.5000000000E-01  2.5000000000E-01
                       7.5000000000E-01  7.5000000000E-01  7.5000000000E-01
                       7.4768886880E-01  2.5231113120E-01  7.4768886880E-01
                       2.5231113120E-01  2.5231113120E-01  7.4768886880E-01
                       7.4768886880E-01  7.4768886880E-01  2.5231113120E-01
                       2.5231113120E-01  7.4768886880E-01  2.5231113120E-01
                       2.5231113120E-01  7.4768886880E-01  7.4768886880E-01
                       7.4768886880E-01  2.5231113120E-01  2.5231113120E-01
                      -1.0649706706E-18  3.6295133719E-19  3.3338097920E-19
         
diemac 12.0
ecut 16
pawecutdg 40
ixc -101130
kptopt 1
ngkpt 12 12 12
prtden 1
iscf 17
nstep 2500
prtwf 0
nshiftk 1
shiftk 0 0 0
nband 42
toldfe 1.0d-8
