            acell     1.5732211373E+01  1.5558035595E+01  1.5560876377E+01
            rprim     0.0000000000E+00  7.0723305084E-01  7.0698048898E-01
                       6.9923151623E-01  0.0000000000E+00  7.1489529772E-01
                       6.9910386505E-01  7.1502012970E-01  0.0000000000E+00

natom    9  
ntypat   4  

            typat 1 1 4 2 4 2 2 4 3
      
znucl    55 53 40 35 

             xred     2.5105665925E-01  2.5105665925E-01  2.4894334075E-01
                       7.5105665925E-01  7.5105665925E-01  7.4894334075E-01
                       2.2870538068E-01  2.2870538068E-01  7.7129461932E-01
                       7.5816372969E-01  7.5816372969E-01  2.4183627031E-01
                       2.3049237028E-01  7.7391338494E-01  7.6950762972E-01
                       7.5430575938E-01  2.4699604205E-01  7.5300395795E-01
                       2.4699604205E-01  7.5430575938E-01  2.4569424062E-01
                       7.7391338494E-01  2.3049237028E-01  2.2608661506E-01
                       5.3100144914E-03  5.3100144914E-03 -5.3100144914E-03
         
diemac 12.0
ecut 20
ixc -428
kptopt 1
ngkpt 2 2 2
prtden 1
iscf 17
nstep 2500
nshiftk 1
shiftk  0 0 0
nband 42
toldfe 1.0d-8
npkpt 4
#getwfk_filepath "Cs2TiI6i_WFK"
