acell      1.6045663836E+01  1.6045663836E+01  1.6045663836E+01
rprim      0.0000000000E+00  0.6151828996353 0.6151828996353
           0.6151828996353 0.0000000000E+00 0.6151828996353
           0.6151828996353 0.6151828996353 0.0000000000E+00  
natom    9  
ntypat   3  
typat    1 1 2 2 2 2 2 2 3  
znucl    55 53 72  
             xred      2.5000000000E-01  2.5000000000E-01  2.5000000000E-01
                       7.5000000000E-01  7.5000000000E-01  7.5000000000E-01
                       7.3891600510E-01  2.6108399490E-01  7.3891600510E-01
                       2.6108399490E-01  2.6108399490E-01  7.3891600510E-01
                       7.3891600510E-01  7.3891600510E-01  2.6108399490E-01
                       2.6108399490E-01  7.3891600510E-01  2.6108399490E-01
                       2.6108399490E-01  7.3891600510E-01  7.3891600510E-01
                       7.3891600510E-01  2.6108399490E-01  2.6108399490E-01
                       6.5250475247E-20 -6.4164225821E-19  9.4095262575E-19
         
diemac 12.0
ecut 16
pawecutdg 40
ixc -101130
kptopt 1
ngkpt 4 4 4
prtden 1
iscf 17
nstep 2500
prtwf 0
nshiftk 4
shiftk  0.5 0.5 0.5
        0.5 0.0 0.0
        0.0 0.5 0.0
        0.0 0.0 0.5
nband 42

toldff 1.0d-8
tolmxf 1.0d-5
ionmov 2
optcell 0
ecutsm 0.5
dilatmx 1.15
