acell      1.4994857538E+01  1.4994857538E+01  1.4994857538E+01
            rprim      0.0000000000E+00  7.0710678119E-01  7.0710678119E-01
                       7.0710678119E-01  0.0000000000E+00  7.0710678119E-01
                       7.0710678119E-01  7.0710678119E-01  0.0000000000E+00
natom    9  
ntypat   3
  
typat  1 1 2 2 2 2 2 2 3 
     
znucl    55 35 72
             xred      2.5000000000E-01  2.5000000000E-01  2.5000000000E-01
                       7.5000000000E-01  7.5000000000E-01  7.5000000000E-01
                       7.6573313645E-01  2.3426686355E-01  7.6573313645E-01
                       2.3426686355E-01  2.3426686355E-01  7.6573313645E-01
                       7.6573313645E-01  7.6573313645E-01  2.3426686355E-01
                       2.3426686355E-01  7.6573313645E-01  2.3426686355E-01
                       2.3426686355E-01  7.6573313645E-01  7.6573313645E-01
                       7.6573313645E-01  2.3426686355E-01  2.3426686355E-01
                      -3.4769237090E-20  3.5565078495E-19 -7.1671430278E-20
         
diemac 12.0
ecut 20
ixc 32
kptopt 1
ngkpt 12 12 12
prtden 1
iscf 17
nstep 2500
nshiftk 1
shiftk  0 0 0
nband 42
toldfe 1.0d-8
