            acell    1.4506174765E+01  1.4313210370E+01  1.4307383163E+01
            rprim    0.0000000000E+00  7.0682651264E-01  7.0738693869E-01
                       6.9715172414E-01  0.0000000000E+00  7.1692361764E-01
                       6.9743566477E-01  7.1664739831E-01  0.0000000000E+00
natom    9  
ntypat   4
            typat 1 1 4 2 4 2 2 4 3      
znucl    55 53 40 35 
             xred    2.5039828301E-01  2.5039828301E-01  2.4960171699E-01
                       7.5039828301E-01  7.5039828301E-01  7.4960171699E-01
                       2.4716289218E-01  2.4716289218E-01  7.5283710782E-01
                       7.4545893042E-01  7.4545893042E-01  2.5454106958E-01
                       2.4746941652E-01  7.5498367495E-01  7.5253058348E-01
                       7.3749614326E-01  2.5945592448E-01  7.4054407552E-01
                       2.5945592448E-01  7.3749614326E-01  2.6250385674E-01
                       7.5498367495E-01  2.4746941652E-01  2.4501632505E-01
                       7.1764521832E-03  7.1764521832E-03 -7.1764521832E-03
         
diemac 12.0
ecut 20
ixc 32
kptopt 1
ngkpt 12 12 12
prtden 1
iscf 17
nstep 2500
nshiftk 1
shiftk  0 0 0
nband 42
toldfe 1.0d-8
