acell      1.6056750671E+01  1.6056750671E+01  1.6056750671E+01
rprim      0.0000000000E+00  0.6010407640115 0.6010407640115
           0.6010407640115 0.0000000000E+00 0.6010407640115
           0.6010407640115 0.6010407640115  0.0000000000E+00   
natom    9  
ntypat   3  
typat    1 1 2 2 2 2 2 2 3  
znucl    55 53 40  
             xred      2.5000000000E-01  2.5000000000E-01  2.5000000000E-01
                       7.5000000000E-01  7.5000000000E-01  7.5000000000E-01
                       2.6418718482E-01  2.6418718482E-01  7.3581281518E-01
                       7.3581281518E-01  7.3581281518E-01  2.6418718482E-01
                       2.6418718482E-01  7.3581281518E-01  7.3581281518E-01
                       7.3581281518E-01  2.6418718482E-01  7.3581281518E-01
                       2.6418718482E-01  7.3581281518E-01  2.6418718482E-01
                       7.3581281518E-01  2.6418718482E-01  2.6418718482E-01
                       6.5105352273E-19 -1.5660706888E-18  4.6049294691E-19
         
diemac 12.0
ecut 16
pawecutdg 40
ixc -101130
kptopt 1
ngkpt 12 12 12
prtden 1
iscf 17
nstep 2500
nshiftk 1
shiftk  0 0 0
nband 42
toldfe 1.0d-8
