            acell     1.5496161884E+01  1.5743530264E+01  1.5743530264E+01
            rprim     0.0000000000E+00  7.0710678119E-01  7.0710678119E-01
                       7.1143424933E-01 -6.7240479235E-03  7.0272049640E-01
                       7.1143424933E-01  7.0272049640E-01 -6.7240479235E-03
natom    9  
ntypat   4  

            typat    1 1 2 4 2 4 2 2 3
        
znucl    55 53 40 17
             xred     2.5045836096E-01  2.4718330697E-01  2.4718330697E-01
                       7.4482497490E-01  7.5281669303E-01  7.5281669303E-01
                       2.3838234321E-01  2.4261757029E-01  7.5738242971E-01
                       7.7622807669E-01  7.8976414446E-01  2.1023585554E-01
                       2.4052340941E-01  7.5542688058E-01  7.5542688058E-01
                       7.7622807669E-01  2.1023585554E-01  7.8976414446E-01
                       2.3838234321E-01  7.5738242971E-01  2.4261757029E-01
                       7.5137717057E-01  2.4457311942E-01  2.4457311942E-01
                      -1.6404755614E-02 -2.8862260748E-19  2.8862260748E-19
         
diemac 12.0
ecut 16
pawecutdg 40
ixc -101130
kptopt 1
ngkpt 12 12 12
prtden 1
iscf 17
nstep 2500
prtwf 0
nshiftk 1
shiftk 0 0 0
nband 42
toldfe 1.0d-8
