acell      1.5541600257E+01  1.5964936804E+01  1.5541600257E+01
            rprim      0.0000000000E+00  6.8730640280E-01  7.2636761262E-01
                       7.0710678119E-01  0.0000000000E+00  7.0710678119E-01
                       7.2636761262E-01  6.8730640280E-01  0.0000000000E+00
natom    9  
ntypat   4
typat    1 1 4 2 2 4 2 2 3 
znucl    55 53 72 17
             xred      2.5000000000E-01  2.5000000000E-01  2.5000000000E-01
                       7.5000000000E-01  7.5000000000E-01  7.5000000000E-01
                       7.8525616577E-01  2.1474383423E-01  7.8525616577E-01
                       2.4172774040E-01  2.4172774040E-01  7.5827225960E-01
                       7.5827225960E-01  7.5827225960E-01  2.4172774040E-01
                       2.1474383423E-01  7.8525616577E-01  2.1474383423E-01
                       2.4172774040E-01  7.5827225960E-01  7.5827225960E-01
                       7.5827225960E-01  2.4172774040E-01  2.4172774040E-01
                       7.7188014048E-21 -2.1452976990E-20 -1.9139078988E-20
         
diemac 12.0
ecut 20
ixc -428
kptopt 1
ngkpt 2 2 2
prtden 1
iscf 17
nstep 2500
nshiftk 1
shiftk  0 0 0
nband 42
toldfe 1.0d-8
npkpt 4
#getwfk_filepath "Cs2TiI6i_WFK"
