acell  1.1132300400E+01  1.1132300400E+01  1.1132300400E+01
            rprim   0.0000000000E+00  1.0000000000E+00  1.0166808740E+00
                       1.0166808740E+00  0.0000000000E+00  1.0166808740E+00
                       1.0166808740E+00  1.0000000000E+00  0.0000000000E+00
natom    9  
ntypat   4
typat 1 1 4 2 2 2 2 2 3 
      
znucl    55 53 72 35
             xred      2.4855000000E-01  2.5145000000E-01  2.4855000000E-01
                       7.4855000000E-01  7.5145000000E-01  7.4855000000E-01
                       7.7510000000E-01  2.2490000000E-01  7.7510000000E-01
                       2.3806000000E-01  2.4130000000E-01  7.5870000000E-01
                       7.5870000000E-01  7.6194000000E-01  2.3806000000E-01
                       2.3902000000E-01  7.6098000000E-01  2.3902000000E-01
                       2.3806000000E-01  7.6194000000E-01  7.5870000000E-01
                       7.5870000000E-01  2.4130000000E-01  2.3806000000E-01
                      -4.7368000000E-03  4.7368000000E-03 -4.7368000000E-03
         
diemac 12.0
ecut 20
ixc 32
kptopt 1
ngkpt 12 12 12
prtden 1
iscf 17
nstep 2500
nshiftk 1
shiftk  0 0 0
nband 42
toldfe 1.0d-8
