            acell     1.4212778538E+01  1.4212778538E+01  1.4217466964E+01
            rprim     0.0000000000E+00  7.0734003733E-01  7.0687344807E-01
                       7.0734003733E-01  0.0000000000E+00  7.0687344807E-01
                       7.0710678119E-01  7.0710678119E-01  0.0000000000E+00
natom    9  
ntypat   4  
            typat    1 1 2 2 4 4 4 4 3
znucl    55 53 40 35 
             xred     2.5000000000E-01  2.5000000000E-01  2.5000000000E-01
                       7.5000000000E-01  7.5000000000E-01  7.5000000000E-01
                       2.6633299670E-01  2.6633299670E-01  7.3366700330E-01
                       7.3366700330E-01  7.3366700330E-01  2.6633299670E-01
                       2.4515596165E-01  7.5484403835E-01  7.5484403835E-01
                       7.5484403835E-01  2.4515596165E-01  7.5484403835E-01
                       2.4515596165E-01  7.5484403835E-01  2.4515596165E-01
                       7.5484403835E-01  2.4515596165E-01  2.4515596165E-01
                      -1.6514021364E-21  1.5814381100E-21 -5.1257927506E-21
         
diemac 12.0
ecut 20
ixc -428
kptopt 1
ngkpt 2 2 2
prtden 1
iscf 17
nstep 2500
nshiftk 1
shiftk  0 0 0
nband 42
toldfe 1.0d-8
npkpt 4
#getwfk_filepath "Cs2TiI6i_WFK"
