            acell     1.4669823934E+01  1.5001019263E+01  1.4669823934E+01
            rprim     0.0000000000E+00  6.9077384721E-01  7.2307087621E-01
                       7.0710678119E-01  0.0000000000E+00  7.0710678119E-01
                       7.2307087621E-01  6.9077384721E-01  0.0000000000E+00
natom    9  
ntypat   4
typat 1 1 4 2 2 4 2 2 3
      
znucl    55 53 72 35
             xred     2.5000000000E-01  2.5000000000E-01  2.5000000000E-01
                       7.5000000000E-01  7.5000000000E-01  7.5000000000E-01
                       7.5883064476E-01  2.4116935524E-01  7.5883064476E-01
                       2.5288165543E-01  2.5288165543E-01  7.4711834457E-01
                       7.4711834457E-01  7.4711834457E-01  2.5288165543E-01
                       2.4116935524E-01  7.5883064476E-01  2.4116935524E-01
                       2.5288165543E-01  7.4711834457E-01  7.4711834457E-01
                       7.4711834457E-01  2.5288165543E-01  2.5288165543E-01
                       0.0000000000E+00  0.0000000000E+00  0.0000000000E+00
         
diemac 12.0
ecut 20
ixc 32
kptopt 1
ngkpt 12 12 12
prtden 1
iscf 17
nstep 2500
nshiftk 1
shiftk  0 0 0
nband 42
toldfe 1.0d-8
