            acell    1.4313892095E+01  1.4327573465E+01  1.4313892095E+01
            rprim    0.0000000000E+00  7.0643027442E-01  7.0778264135E-01
                       7.0710678119E-01  0.0000000000E+00  7.0710678119E-01
                       7.0778264135E-01  7.0643027442E-01  0.0000000000E+00
natom    9  
ntypat   4
typat    1 1 2 4 4 4 4 4 3 
      
znucl    55 53 72 35
             xred    2.5212512227E-01  2.4787487773E-01  2.5212512227E-01
                       7.5212512227E-01  7.4787487773E-01  7.5212512227E-01
                       7.3977592097E-01  2.6022407903E-01  7.3977592097E-01
                       2.4327743619E-01  2.4236922078E-01  7.5763077922E-01
                       7.5763077922E-01  7.5672256381E-01  2.4327743619E-01
                       2.4860604198E-01  7.5139395802E-01  2.4860604198E-01
                       2.4327743619E-01  7.5672256381E-01  7.5763077922E-01
                       7.5763077922E-01  2.4236922078E-01  2.4327743619E-01
                       5.5513617074E-03 -5.5513617074E-03  5.5513617074E-03
         
diemac 12.0
ecut 20
ixc 32
kptopt 1
ngkpt 12 12 12
prtden 1
iscf 17
nstep 2500
nshiftk 1
shiftk  0 0 0
nband 42
toldfe 1.0d-8
