            acell     1.4530467161E+01  1.4693344040E+01  1.4693344040E+01
            rprim     0.0000000000E+00  7.0710678119E-01  7.0710678119E-01
                       7.0912012816E-01 -5.7954205932E-03  7.0506386727E-01
                       7.0912012816E-01  7.0506386727E-01 -5.7954205932E-03
natom    9  
ntypat   4  
            typat    1 1 2 4 2 4 2 2 3
znucl    55 53 40 17
             xred     2.4581003151E-01  2.5137480609E-01  2.5137480609E-01
                       7.4855964369E-01  7.4862519391E-01  7.4862519391E-01
                       2.5059614463E-01  2.5139481538E-01  7.4860518462E-01
                       7.6080231433E-01  7.7290718289E-01  2.2709281711E-01
                       2.5986607435E-01  7.4178433917E-01  7.4178433917E-01
                       7.6080231433E-01  2.2709281711E-01  7.7290718289E-01
                       2.5059614463E-01  7.4860518462E-01  2.5139481538E-01
                       7.4343475270E-01  2.5821566083E-01  2.5821566083E-01
                      -2.0467420152E-02 -3.4944624977E-19  3.4944624977E-19
         
diemac 12.0
ecut 20
ixc 32
kptopt 1
ngkpt 12 12 12
prtden 1
iscf 17
nstep 2500
nshiftk 1
shiftk  0 0 0
nband 42
toldfe 1.0d-8
