ndtset 20
ecut: 4
pawecutdg: 10
ecut+ 1
pawecutdg+ 2.5

acell    3*22.41366332688  

rprim    0.000000000000000   0.500000000000000   0.500000000000000 
         0.500000000000000   0.000000000000000   0.500000000000000 
         0.500000000000000   0.500000000000000   0.000000000000000 
       
natom    9  
ntypat   3  
typat    1 1 2 2 2 2 2 2 3  
znucl    55 53 72  
xred      2.5000000000E-01  2.5000000000E-01  2.5000000000E-01
          7.5000000000E-01  7.5000000000E-01  7.5000000000E-01
          0.76151500  0.23848500  0.76151500
          0.23848500  0.23848500  0.76151500
          0.76151500  0.76151500  0.23848500
          0.23848500  0.76151500  0.23848500
          0.23848500  0.76151500  0.76151500
          0.76151500  0.23848500  0.23848500
          0 0 0
         
diemac 12.0
#ecut 16
#pawecutdg 40
ixc -101130
toldfe 1.0d-6
kptopt 1
ngkpt 4 4 4
prtden 1
iscf 17
nstep 2500
prtwf 0
nshiftk 1
shiftk 0 0 0
nband 42
