acell      1.5827843700E+01  1.6020280040E+01  1.5827843700E+01
            rprim      0.0000000000E+00  6.9840389529E-01  7.1570384870E-01
                       7.0710678119E-01  0.0000000000E+00  7.0710678119E-01
                       7.1570384870E-01  6.9840389529E-01  0.0000000000E+00
natom    9  
ntypat   4
typat 1 1 4 2 2 2 2 2 3   
znucl    55 53 72 17
             xred      2.4777957677E-01  2.5222042323E-01  2.4777957677E-01
                       7.4777957677E-01  7.5222042323E-01  7.4777957677E-01
                       7.8734578485E-01  2.1265421515E-01  7.8734578485E-01
                       2.3741000298E-01  2.4211238509E-01  7.5788761491E-01
                       7.5788761491E-01  7.6258999702E-01  2.3741000298E-01
                       2.3979126558E-01  7.6020873442E-01  2.3979126558E-01
                       2.3741000298E-01  7.6258999702E-01  7.5788761491E-01
                       7.5788761491E-01  2.4211238509E-01  2.3741000298E-01
                      -6.2672607525E-03  6.2672607525E-03 -6.2672607525E-03
         
diemac 12.0
ecut 20
ixc -428
kptopt 1
ngkpt 2 2 2
prtden 1
iscf 17
nstep 2500
nshiftk 1
shiftk  0 0 0
nband 42
toldfe 1.0d-8
npkpt 4
#getwfk_filepath "Cs2TiI6i_WFK"
