acell      1.6045663836E+01  1.6045663836E+01  1.6045663836E+01
rprim      0.0000000000E+00  0.6717514421305  0.6717514421305
           0.6717514421305  0.0000000000E+00  0.6717514421305
           0.6717514421305  0.6717514421305  0.0000000000E+00
natom    9  
ntypat   3  
typat    1 1 2 2 2 2 2 2 3  
znucl    55 53 72  
             xred      2.5000000000E-01  2.5000000000E-01  2.5000000000E-01
                       7.5000000000E-01  7.5000000000E-01  7.5000000000E-01
                       7.5134958737E-01  2.4865041263E-01  7.5134958737E-01
                       2.4865041263E-01  2.4865041263E-01  7.5134958737E-01
                       7.5134958737E-01  7.5134958737E-01  2.4865041263E-01
                       2.4865041263E-01  7.5134958737E-01  2.4865041263E-01
                       2.4865041263E-01  7.5134958737E-01  7.5134958737E-01
                       7.5134958737E-01  2.4865041263E-01  2.4865041263E-01
                      -8.4735963300E-22  3.3961475188E-20 -2.6796025251E-20
         
diemac 12.0
ecut 16
pawecutdg 40
ixc -101130
kptopt 1
ngkpt 12 12 12
prtden 1
iscf 17
nstep 2500
prtwf 0
nshiftk 1
shiftk 0 0 0
nband 42
toldfe 1.0d-8
