acell      1.4433984642E+01  1.4601037711E+01  1.4433984642E+01
            rprim      0.0000000000E+00  6.9882718365E-01  7.1529054753E-01
                       7.0710678119E-01  0.0000000000E+00  7.0710678119E-01
                       7.1529054753E-01  6.9882718365E-01  0.0000000000E+00

natom    9  
ntypat   4  

typat 1 1 4 2 2 2 2 2 3 
      
znucl    55 53 72 35
             xred      2.4957336134E-01  2.5042663866E-01  2.4957336134E-01
                       7.4957336134E-01  7.5042663866E-01  7.4957336134E-01
                       7.5191100889E-01  2.4808899111E-01  7.5191100889E-01
                       2.5659262451E-01  2.5571208031E-01  7.4428791969E-01
                       7.4428791969E-01  7.4340737549E-01  2.5659262451E-01
                       2.5469082364E-01  7.4530917636E-01  2.5469082364E-01
                       2.5659262451E-01  7.4340737549E-01  7.4428791969E-01
                       7.4428791969E-01  2.5571208031E-01  2.5659262451E-01
                      -7.5064436033E-03  7.5064436033E-03 -7.5064436033E-03
         
diemac 12.0
ecut 16
pawecutdg 40
ixc -101130
kptopt 1
ngkpt 12 12 12
prtden 1
iscf 17
nstep 2500
prtwf 0
nshiftk 1
shiftk 0 0 0
nband 42
toldfe 1.0d-8
