            acell     1.5420047701E+01  1.5420047701E+01  1.5418496941E+01
            rprim     0.0000000000E+00  7.0703566902E-01  7.0717788620E-01
                       7.0703566902E-01  0.0000000000E+00  7.0717788620E-01
                       7.0710678119E-01  7.0710678119E-01  0.0000000000E+00
natom    9  
ntypat   4  
            typat    1 1 2 2 4 4 4 4 3
znucl    55 53 40 35 
             xred     2.5000000000E-01  2.5000000000E-01  2.5000000000E-01
                       7.5000000000E-01  7.5000000000E-01  7.5000000000E-01
                       2.5166206210E-01  2.5166206210E-01  7.4833793790E-01
                       7.4833793790E-01  7.4833793790E-01  2.5166206210E-01
                       2.2864836552E-01  7.7135163448E-01  7.7135163448E-01
                       7.7135163448E-01  2.2864836552E-01  7.7135163448E-01
                       2.2864836552E-01  7.7135163448E-01  2.2864836552E-01
                       7.7135163448E-01  2.2864836552E-01  2.2864836552E-01
                      -8.4364820404E-22  1.9509116792E-21 -5.7851734225E-21
         
diemac 12.0
ecut 20
ixc -428
kptopt 1
ngkpt 2 2 2
prtden 1
iscf 17
nstep 2500
nshiftk 1
shiftk  0 0 0
nband 42
toldfe 1.0d-8
npkpt 4
#getwfk_filepath "Cs2TiI6i_WFK"
