            acell     1.3954825348E+01  1.4226742997E+01  1.3954825348E+01
            rprim     0.0000000000E+00  6.9305453748E-01  7.2088515596E-01
                       7.0710678119E-01  0.0000000000E+00  7.0710678119E-01
                       7.2088515596E-01  6.9305453748E-01  0.0000000000E+00
natom    9  
ntypat   4
typat    1 1 2 4 4 4 4 4 3   
znucl    55 53 72 17
             xred     2.5587441998E-01  2.4412558002E-01  2.5587441998E-01
                       7.5587441998E-01  7.4412558002E-01  7.5587441998E-01
                       7.2807833802E-01  2.7192166198E-01  7.2807833802E-01
                       2.3173977165E-01  2.2867928412E-01  7.7132071588E-01
                       7.7132071588E-01  7.6826022835E-01  2.3173977165E-01
                       2.4623365839E-01  7.5376634161E-01  2.4623365839E-01
                       2.3173977165E-01  7.6826022835E-01  7.7132071588E-01
                       7.7132071588E-01  2.2867928412E-01  2.3173977165E-01
                       7.8181885330E-03 -7.8181885330E-03  7.8181885330E-03
         
diemac 12.0
ecut 20
ixc 32
kptopt 1
ngkpt 12 12 12
prtden 1
iscf 17
nstep 2500
nshiftk 1
shiftk  0 0 0
nband 42
toldfe 1.0d-8
