 ndtset 6

#First dataset : SC run with kpoints in the IBZ
  nband1  42     
  nstep1 200
 kptopt1 1
 nbdbuf1 0
 prtden1 1   getden1 0   getwfk1 0    # Usual file handling data
# getwfk_filepath1 "Cs2TiI6i_WFK"
 
#Second dataset : NSC run with large number of bands, and points in the IBZ
    iscf2 -2  
   nstep2 200
  kptopt2  1
  getwfk2  1   getden2 1   # Usual file handling data

#Third dataset : NSC run with large number of bands, and points in the full BZ 
    iscf3 -2  
   nstep3 100
  getwfk3  2   getden3 1   # Usual file handling data


#Fourth dataset : ddk response function along axis 1
   iscf4 -3
  nstep4  1  nline4  0  prtwf4  3   # Speed up the calculation : the first-order response wavefunction is not computed, only the matrix elements.

   nqpt4  1  
  rfdir4  1 0 0
 rfelfd4  2

#Fifth dataset : ddk response function along axis 2
   iscf5 -3
  nstep5  1  nline5  0   prtwf5  3   # Speed up the calculation : the first-order response wavefunction is not computed, only the matrix elements.

   nqpt5  1  
  rfdir5  0 1 0
 rfelfd5  2

#Sixth dataset : ddk response function along axis 3
   iscf6 -3
  nstep6  1  nline6  0    prtwf6  3   # Speed up the calculation : the first-order response wavefunction is not computed, only the matrix elements.

   nqpt6  1  
  rfdir6  0 0 1
 rfelfd6  2

# Data common to datasets 2-6
  nband  100      # This number of bands might be too low for non-linear optics and real part of linear optics

# Data common to datasets 3-6
 kptopt   2      # Need points in the full BZ for non-linear optical properties

# Data common to datasets 4-6
  getwfk  3

#Data common to all datasets
 nshiftk 4
 shiftk  0.5 0.5 0.5
         0.5 0.0 0.0
         0.0 0.5 0.0
         0.0 0.0 0.5
 ngkpt  6 6 6        # This is much too low : should be at least 24x24x24
   qpt  0.0 0.0 0.0     # Not really needed, because it is the defaults, but mentioned here to keep track of its importance for datasets 4-6

            acell     1.4097767019E+01  1.3876952035E+01  1.4214498571E+01
            rprim     0.0000000000E+00  7.2377819548E-01  6.9003269760E-01
                       7.1314874649E-01  0.0000000000E+00  7.0101274267E-01
                       6.9621386217E-01  7.1783442250E-01  0.0000000000E+00
natom    9  
ntypat   4  
            typat 1 1 4 4 2 4 2 2 3
znucl    55 53 40 17
             xred     2.5087630187E-01  2.4912369813E-01  2.5087630187E-01
                       7.5087630187E-01  7.4912369813E-01  7.5087630187E-01
                       2.3088672458E-01  2.4378519077E-01  7.5621480923E-01
                       7.5621480923E-01  7.6911327542E-01  2.3088672458E-01
                       2.7408333151E-01  7.2591666849E-01  7.3497178616E-01
                       7.6150913227E-01  2.3849086773E-01  7.6150913227E-01
                       2.5212124714E-01  7.4787875286E-01  2.5212124714E-01
                       7.3497178616E-01  2.6502821384E-01  2.7408333151E-01
                      -1.1539634602E-02  1.1539634602E-02 -1.1539634602E-02
diemac 12.0
ecut 16
pawecutdg 40
ixc -101130
nbdbuf 2
tolwfr 1.0d-18
