acell      1.6056750671E+01  1.6056750671E+01  1.6056750671E+01
rprim      0.0000000000E+00  7.0710678119E-01  7.0710678119E-01
           7.0710678119E-01  0.0000000000E+00  7.0710678119E-01
           7.0710678119E-01  7.0710678119E-01  0.0000000000E+00
natom    9  
ntypat   3  
typat    1 1 2 2 2 2 2 2 3  
znucl    55 53 40  
xred      2.5000000000E-01  2.5000000000E-01  2.5000000000E-01
          7.5000000000E-01  7.5000000000E-01  7.5000000000E-01
          2.3993637364E-01  2.3993637364E-01  7.6006362636E-01
          7.6006362636E-01  7.6006362636E-01  2.3993637364E-01
          2.3993637364E-01  7.6006362636E-01  7.6006362636E-01
          7.6006362636E-01  2.3993637364E-01  7.6006362636E-01
          2.3993637364E-01  7.6006362636E-01  2.3993637364E-01
          7.6006362636E-01  2.3993637364E-01  2.3993637364E-01
          9.2618308073E-22  4.7165859128E-22 -4.1448424962E-22
         
diemac 12.0
ecut 20
ixc 32
kptopt 1
ngkpt 12 12 12
prtden 1
iscf 17
nstep 2500
nshiftk 1
shiftk  0 0 0
nband 42
toldfe 1.0d-8
