acell      1.6056750671E+01  1.6056750671E+01  1.6056750671E+01
rprim      0.0000000000E+00  0.6858935777543 0.6858935777543
           0.6858935777543  0.0000000000E+00 0.6858935777543
           0.6858935777543 0.6858935777543  0.0000000000E+00   
natom    9  
ntypat   3  
typat    1 1 2 2 2 2 2 2 3  
znucl    55 53 40  
             xred      2.5000000000E-01  2.5000000000E-01  2.5000000000E-01
                       7.5000000000E-01  7.5000000000E-01  7.5000000000E-01
                       2.4612937367E-01  2.4612937367E-01  7.5387062633E-01
                       7.5387062633E-01  7.5387062633E-01  2.4612937367E-01
                       2.4612937367E-01  7.5387062633E-01  7.5387062633E-01
                       7.5387062633E-01  2.4612937367E-01  7.5387062633E-01
                       2.4612937367E-01  7.5387062633E-01  2.4612937367E-01
                       7.5387062633E-01  2.4612937367E-01  2.4612937367E-01
                      -1.4043175958E-20  4.7628301913E-20 -2.1626458350E-20
         
diemac 12.0
ecut 16
pawecutdg 40
ixc -101130
kptopt 1
ngkpt 4 4 4
prtden 1
iscf 17
nstep 2500
prtwf 0
nshiftk 4
shiftk  0.5 0.5 0.5
        0.5 0.0 0.0
        0.0 0.5 0.0
        0.0 0.0 0.5
nband 42

toldff 1.0d-8
tolmxf 1.0d-5
ionmov 2
optcell 0
ecutsm 0.5
dilatmx 1.15
