acell      1.5546298368E+01  1.5720170163E+01  1.5547594142E+01
            rprim      0.0000000000E+00  6.9916856495E-01  7.1495686428E-01
                       7.0716442159E-01  0.0000000000E+00  7.0704913608E-01
                       7.1501384324E-01  6.9911029457E-01  0.0000000000E+00

natom    9  
ntypat   4  

typat 1 1 4 4 2 4 2 2 3
      
znucl    55 53 72 35
             xred      2.5078903398E-01  2.5078903398E-01  2.4921096602E-01
                       7.5078903398E-01  7.5078903398E-01  7.4921096602E-01
                       7.7563108039E-01  2.2921292656E-01  7.7078707344E-01
                       2.2700486874E-01  2.2700486874E-01  7.7299513126E-01
                       7.5950434724E-01  7.5950434724E-01  2.4049565276E-01
                       2.2921292656E-01  7.7563108039E-01  2.2436891961E-01
                       2.4590011278E-01  7.5592914354E-01  7.5409988722E-01
                       7.5592914354E-01  2.4590011278E-01  2.4407085646E-01
                       5.2394527776E-03  5.2394527776E-03 -5.2394527776E-03
         
diemac 12.0
ecut 16
pawecutdg 40
ixc -101130
kptopt 1
ngkpt 12 12 12
prtden 1
iscf 17
nstep 2500
prtwf 0
nshiftk 1
shiftk 0 0 0
nband 42
toldfe 1.0d-8
