            acell     1.5886054642E+01  1.5886054642E+01  1.6017060649E+01
            rprim     0.0000000000E+00  7.1293801104E-01  7.0122706195E-01
                       7.1293801104E-01  0.0000000000E+00  7.0122706195E-01
                       7.0710678119E-01  7.0710678119E-01  0.0000000000E+00
natom    9  
ntypat   4  
                      
            typat    1 1 2 4 2 2 2 2 3
      
znucl    55 53 40 35 
             xred     2.4860625819E-01  2.4860625819E-01  2.5139374181E-01
                       7.4860625819E-01  7.4860625819E-01  7.5139374181E-01
                       2.4022546790E-01  2.4022546790E-01  7.5977453210E-01
                       7.7326672865E-01  7.7326672865E-01  2.2673327135E-01
                       2.3965522354E-01  7.5745489869E-01  7.6034477646E-01
                       7.5745489869E-01  2.3965522354E-01  7.6034477646E-01
                       2.3965522354E-01  7.5745489869E-01  2.4254510131E-01
                       7.5745489869E-01  2.3965522354E-01  2.4254510131E-01
                      -4.9249573930E-03 -4.9249573930E-03  4.9249573930E-03
         
diemac 12.0
ecut 20
ixc 32
kptopt 1
ngkpt 12 12 12
prtden 1
iscf 17
nstep 2500
nshiftk 1
shiftk  0 0 0
nband 42
toldfe 1.0d-8
