            acell    1.4631161580E+01  1.4792627068E+01  1.4605535707E+01
            rprim    0.0000000000E+00  6.9796379264E-01  7.1613304920E-01
                       7.0589522492E-01  0.0000000000E+00  7.0831626512E-01
                       7.1493747443E-01  6.9918839211E-01  0.0000000000E+00
natom    9  
ntypat   4
typat 1 1 4 4 2 4 2 2 3
      
znucl    55 53 72 35
             xred    2.5080729140E-01  2.5080729140E-01  2.4919270860E-01
                       7.5080729140E-01  7.5080729140E-01  7.4919270860E-01
                       7.6200881315E-01  2.4207355517E-01  7.5792644483E-01
                       2.4035173214E-01  2.4035173214E-01  7.5964826786E-01
                       7.4934704533E-01  7.4934704533E-01  2.5065295467E-01
                       2.4207355517E-01  7.6200881315E-01  2.3799118685E-01
                       2.5623844061E-01  7.4228961367E-01  7.4376155939E-01
                       7.4228961367E-01  2.5623844061E-01  2.5771038633E-01
                       6.0762171173E-03  6.0762171173E-03 -6.0762171173E-03
         
diemac 12.0
ecut 20
ixc 32
kptopt 1
ngkpt 12 12 12
prtden 1
iscf 17
nstep 2500
nshiftk 1
shiftk  0 0 0
nband 42
toldfe 1.0d-8
