            acell     1.4127183297E+01  1.4425688122E+01  1.4127183297E+01
            rprim     1.0566564137E-02  7.0262562655E-01  7.1148125529E-01
                       7.0710678119E-01  0.0000000000E+00  7.0710678119E-01
                       7.1148125529E-01  7.0262562655E-01  1.0566564137E-02
natom    9  
ntypat   4
            typat    1 1 2 4 2 4 4 4 3 
znucl    55 53 40 17
             xred     2.3184341719E-01  2.5782224081E-01  2.5251210118E-01
                       7.4748789882E-01  7.4217775919E-01  7.6815658281E-01
                       2.6615470289E-01  2.5625050213E-01  7.3384529711E-01
                       7.5848407849E-01  7.6354860025E-01  2.4151592151E-01
                       2.6615470289E-01  7.4374949787E-01  7.3384529711E-01
                       7.6016629309E-01  2.3403082527E-01  7.7177205636E-01
                       2.2822794364E-01  7.6596917473E-01  2.3983370691E-01
                       7.5848407849E-01  2.3645139975E-01  2.4151592151E-01
                      -1.7003115518E-02 -4.8959936323E-20  1.7003115518E-02
diemac 12.0
ecut 20
ixc 32
kptopt 1
ngkpt 12 12 12
prtden 1
iscf 17
nstep 2500
nshiftk 1
shiftk  0 0 0
nband 42
toldfe 1.0d-8
