acell      1.5008731918E+01  1.5221781437E+01  1.5008731918E+01
            rprim      0.0000000000E+00  6.9692482559E-01  7.1714418877E-01
                       7.0710678119E-01  0.0000000000E+00  7.0710678119E-01
                       7.1714418877E-01  6.9692482559E-01  0.0000000000E+00
natom    9  
ntypat   4
typat    1 1 2 4 4 2 4 4 3  
znucl    55 53 72 17
             xred      2.5000000000E-01  2.5000000000E-01  2.5000000000E-01
                       7.5000000000E-01  7.5000000000E-01  7.5000000000E-01
                       7.3847266264E-01  2.6152733736E-01  7.3847266264E-01
                       2.1540799946E-01  2.1540799946E-01  7.8459200054E-01
                       7.8459200054E-01  7.8459200054E-01  2.1540799946E-01
                       2.6152733736E-01  7.3847266264E-01  2.6152733736E-01
                       2.1540799946E-01  7.8459200054E-01  7.8459200054E-01
                       7.8459200054E-01  2.1540799946E-01  2.1540799946E-01
                       0.0000000000E+00  0.0000000000E+00  0.0000000000E+00
         
diemac 12.0
ecut 20
ixc -428
kptopt 1
ngkpt 2 2 2
prtden 1
iscf 17
nstep 2500
nshiftk 1
shiftk  0 0 0
nband 42
toldfe 1.0d-8
npkpt 4
#getwfk_filepath "Cs2TiI6i_WFK"
