            acell     1.5411825978E+01  1.5322716430E+01  1.5622272150E+01
            rprim     0.0000000000E+00  7.2077268023E-01  6.9317151083E-01
                       7.1687408017E-01  0.0000000000E+00  6.9720266292E-01
                       7.0312808156E-01  7.1106321865E-01  0.0000000000E+00
natom    9  
ntypat   4
            typat 1 1 4 4 2 4 2 2 3
znucl    55 53 40 17
             xred     2.4931221725E-01  2.5068778275E-01  2.4931221725E-01
                       7.4931221725E-01  7.5068778275E-01  7.4931221725E-01
                       2.1212332009E-01  2.2262467089E-01  7.7737532911E-01
                       7.7737532911E-01  7.8787667991E-01  2.1212332009E-01
                       2.4922850655E-01  7.5077149345E-01  7.4883813820E-01
                       7.8215452645E-01  2.1784547355E-01  7.8215452645E-01
                       2.4045389127E-01  7.5954610873E-01  2.4045389127E-01
                       7.4883813820E-01  2.5116186180E-01  2.4922850655E-01
                      -8.7981461518E-03  8.7981461518E-03 -8.7981461518E-03
         
diemac 12.0
ecut 20
ixc -428
kptopt 1
ngkpt 2 2 2
prtden 1
iscf 17
nstep 2500
nshiftk 1
shiftk  0 0 0
nband 42
toldfe 1.0d-8
npkpt 4
#getwfk_filepath "Cs2TiI6i_WFK"
