            acell    1.4563498742E+01  1.4668687131E+01  1.4342516957E+01
            rprim    0.0000000000E+00  6.9115310911E-01  7.2270836426E-01
                       6.9653186561E-01  0.0000000000E+00  7.1752586029E-01
                       7.1237203660E-01  7.0180202441E-01  0.0000000000E+00
natom    9  
ntypat   4
typat 1 1 4 4 2 4 2 2 3 
znucl    55 53 72 17
             xred    2.4990691466E-01  2.4990691466E-01  2.5009308534E-01
                       7.4990691466E-01  7.4990691466E-01  7.5009308534E-01
                       7.7830103441E-01  2.3530047557E-01  7.6469952443E-01
                       2.2860020659E-01  2.2860020659E-01  7.7139979341E-01
                       7.5260141541E-01  7.5260141541E-01  2.4739858459E-01
                       2.3530047557E-01  7.7830103441E-01  2.2169896559E-01
                       2.6099721909E-01  7.3451750963E-01  7.3900278091E-01
                       7.3451750963E-01  2.6099721909E-01  2.6548249037E-01
                       9.8683099883E-03  9.8683099883E-03 -9.8683099883E-03
         
diemac 12.0
ecut 20
ixc 32
kptopt 1
ngkpt 12 12 12
prtden 1
iscf 17
nstep 2500
nshiftk 1
shiftk  0 0 0
nband 42
toldfe 1.0d-8
