            acell     1.4558286313E+01  1.4558286313E+01  1.4719445523E+01
            rprim     0.0000000000E+00  7.1493440376E-01  6.9919153193E-01
                       7.1493440376E-01  0.0000000000E+00  6.9919153193E-01
                       7.0710678119E-01  7.0710678119E-01  0.0000000000E+00
natom    9  
ntypat   4  
typat    1 1 2 4 2 2 2 2 3     
znucl    55 53 40 35 
             xred     2.4957542197E-01  2.4957542197E-01  2.5042457803E-01
                       7.4957542197E-01  7.4957542197E-01  7.5042457803E-01
                       2.5456720852E-01  2.5456720852E-01  7.4543279148E-01
                       7.5173172129E-01  7.5173172129E-01  2.4826827871E-01
                       2.5689981984E-01  7.4425415317E-01  7.4310018016E-01
                       7.4425415317E-01  2.5689981984E-01  7.4310018016E-01
                       2.5689981984E-01  7.4425415317E-01  2.5574584683E-01
                       7.4425415317E-01  2.5689981984E-01  2.5574584683E-01
                      -7.7577197548E-03 -7.7577197548E-03  7.7577197548E-03
         
diemac 12.0
ecut 20
ixc 32
kptopt 1
ngkpt 12 12 12
prtden 1
iscf 17
nstep 2500
nshiftk 1
shiftk  0 0 0
nband 42
toldfe 1.0d-8
