acell      1.6056750671E+01  1.6056750671E+01  1.6056750671E+01
rprim      0.0000000000E+00  0.7000357133781 0.7000357133781
           0.7000357133781 0.0000000000E+00  0.7000357133781
           0.7000357133781 0.7000357133781  0.0000000000E+00   
natom    9  
ntypat   3  
typat    1 1 2 2 2 2 2 2 3  
znucl    55 53 40  
             xred      2.5000000000E-01  2.5000000000E-01  2.5000000000E-01
                       7.5000000000E-01  7.5000000000E-01  7.5000000000E-01
                       2.4202248980E-01  2.4202248980E-01  7.5797751020E-01
                       7.5797751020E-01  7.5797751020E-01  2.4202248980E-01
                       2.4202248980E-01  7.5797751020E-01  7.5797751020E-01
                       7.5797751020E-01  2.4202248980E-01  7.5797751020E-01
                       2.4202248980E-01  7.5797751020E-01  2.4202248980E-01
                       7.5797751020E-01  2.4202248980E-01  2.4202248980E-01
                       6.0568724347E-23  2.3393624524E-22  9.0854257051E-22
         
diemac 12.0
ecut 16
pawecutdg 40
ixc -101130
kptopt 1
ngkpt 12 12 12
prtden 1
iscf 17
nstep 2500
nshiftk 1
shiftk  0 0 0
nband 42
toldfe 1.0d-8
