            acell     1.4762460915E+01  1.4979157619E+01  1.4762460915E+01
            rprim     0.0000000000E+00  6.9657258328E-01  7.1748633173E-01
                       7.0710678119E-01  0.0000000000E+00  7.0710678119E-01
                       7.1748633173E-01  6.9657258328E-01  0.0000000000E+00
natom    9  
ntypat   4
typat 1 1 4 2 2 2 2 2 3   
znucl    55 53 72 17
             xred     2.4878837293E-01  2.5121162707E-01  2.4878837293E-01
                       7.4878837293E-01  7.5121162707E-01  7.4878837293E-01
                       7.6890934835E-01  2.3109065165E-01  7.6890934835E-01
                       2.5213145400E-01  2.5289866024E-01  7.4710133976E-01
                       7.4710133976E-01  7.4786854600E-01  2.5213145400E-01
                       2.5118010119E-01  7.4881989881E-01  2.5118010119E-01
                       2.5213145400E-01  7.4786854600E-01  7.4710133976E-01
                       7.4710133976E-01  2.5289866024E-01  2.5213145400E-01
                      -9.1076038986E-03  9.1076038986E-03 -9.1076038986E-03
         
diemac 12.0
ecut 20
ixc 32
kptopt 1
ngkpt 12 12 12
prtden 1
iscf 17
nstep 2500
nshiftk 1
shiftk  0 0 0
nband 42
toldfe 1.0d-8
