acell      1.4744947763E+01  1.4899098069E+01  1.4744947763E+01
            rprim      0.0000000000E+00  6.9963626486E-01  7.1449919306E-01
                       7.0710678119E-01  0.0000000000E+00  7.0710678119E-01
                       7.1449919306E-01  6.9963626486E-01  0.0000000000E+00
natom    9  
ntypat   4  
typat    1 1 2 4 4 4 4 4 3   
znucl    55 53 72 17
             xred      2.5665417141E-01  2.4334582859E-01  2.5665417141E-01
                       7.5665417141E-01  7.4334582859E-01  7.5665417141E-01
                       7.4009319465E-01  2.5990680535E-01  7.4009319465E-01
                       2.2262985982E-01  2.1866711125E-01  7.8133288875E-01
                       7.8133288875E-01  7.7737014018E-01  2.2262985982E-01
                       2.3134699641E-01  7.6865300359E-01  2.3134699641E-01
                       2.2262985982E-01  7.7737014018E-01  7.8133288875E-01
                       7.8133288875E-01  2.1866711125E-01  2.2262985982E-01
                       7.3259689837E-03 -7.3259689837E-03  7.3259689837E-03
         
diemac 12.0
ecut 20
ixc 32
kptopt 1
ngkpt 12 12 12
prtden 1
iscf 17
nstep 2500
nshiftk 1
shiftk  0 0 0
nband 42
toldfe 1.0d-8
