ndtset 9
acell      1.6056750671E+01  1.6056750671E+01  1.6056750671E+01
rprim1    0 0.63568899628981 0.63568899628981
          0.63568899628981 0 0.63568899628981
          0.63568899628981 0.63568899628981 0

rprim2    0 0.63498188950862 0.63498188950862
          0.63498188950862 0 0.63498188950862
          0.63498188950862 0.63498188950862 0

rprim3    0 0.63427478272743 0.63427478272743
          0.63427478272743 0 0.63427478272743
          0.63427478272743 0.63427478272743 0

rprim4    0 0.63356767594624 0.63356767594624
          0.63356767594624 0 0.63356767594624
          0.63356767594624 0.63356767594624 0

rprim5    0 0.63286056916505 0.63286056916505
          0.63286056916505 0 0.63286056916505
          0.63286056916505 0.63286056916505 0

rprim6    0 0.63215346238386 0.63215346238386
          0.63215346238386 0 0.63215346238386
          0.63215346238386 0.63215346238386 0

rprim7    0 0.63144635560267 0.63144635560267
          0.63144635560267 0 0.63144635560267
          0.63144635560267 0.63144635560267 0

rprim8    0 0.63073924882148 0.63073924882148
          0.63073924882148 0 0.63073924882148
          0.63073924882148 0.63073924882148 0

rprim9    0 0.63003214204029 0.63003214204029
          0.63003214204029 0 0.63003214204029
          0.63003214204029 0.63003214204029 0 
natom    9  
ntypat   3  
typat    1 1 2 2 2 2 2 2 3  
znucl    55 53 40  
             xred1     2.5000000000E-01  2.5000000000E-01  2.5000000000E-01
                       7.5000000000E-01  7.5000000000E-01  7.5000000000E-01
                       2.5843932371E-01  2.5843932371E-01  7.4156067629E-01
                       7.4156067629E-01  7.4156067629E-01  2.5843932371E-01
                       2.5843932371E-01  7.4156067629E-01  7.4156067629E-01
                       7.4156067629E-01  2.5843932371E-01  7.4156067629E-01
                       2.5843932371E-01  7.4156067629E-01  2.5843932371E-01
                       7.4156067629E-01  2.5843932371E-01  2.5843932371E-01
                       1.0734096656E-19 -1.1074393671E-20 -1.2144118201E-19
             xred2     2.5000000000E-01  2.5000000000E-01  2.5000000000E-01
                       7.5000000000E-01  7.5000000000E-01  7.5000000000E-01
                       2.5857990256E-01  2.5857990256E-01  7.4142009744E-01
                       7.4142009744E-01  7.4142009744E-01  2.5857990256E-01
                       2.5857990256E-01  7.4142009744E-01  7.4142009744E-01
                       7.4142009744E-01  2.5857990256E-01  7.4142009744E-01
                       2.5857990256E-01  7.4142009744E-01  2.5857990256E-01
                       7.4142009744E-01  2.5857990256E-01  2.5857990256E-01
                       1.2899672497E-19  4.0619757085E-21 -1.7638960172E-19
             xred3     2.5000000000E-01  2.5000000000E-01  2.5000000000E-01
                       7.5000000000E-01  7.5000000000E-01  7.5000000000E-01
                       2.5871882617E-01  2.5871882617E-01  7.4128117383E-01
                       7.4128117383E-01  7.4128117383E-01  2.5871882617E-01
                       2.5871882617E-01  7.4128117383E-01  7.4128117383E-01
                       7.4128117383E-01  2.5871882617E-01  7.4128117383E-01
                       2.5871882617E-01  7.4128117383E-01  2.5871882617E-01
                       7.4128117383E-01  2.5871882617E-01  2.5871882617E-01
                       1.5762189996E-19 -4.0255824604E-20 -9.7270608107E-20
             xred4     2.5000000000E-01  2.5000000000E-01  2.5000000000E-01
                       7.5000000000E-01  7.5000000000E-01  7.5000000000E-01
                       2.5885838181E-01  2.5885838181E-01  7.4114161819E-01
                       7.4114161819E-01  7.4114161819E-01  2.5885838181E-01
                       2.5885838181E-01  7.4114161819E-01  7.4114161819E-01
                       7.4114161819E-01  2.5885838181E-01  7.4114161819E-01
                       2.5885838181E-01  7.4114161819E-01  2.5885838181E-01
                       7.4114161819E-01  2.5885838181E-01  2.5885838181E-01
                       1.0789502767E-19 -5.1652705701E-20 -1.0484218651E-19
             xred5     2.5000000000E-01  2.5000000000E-01  2.5000000000E-01
                       7.5000000000E-01  7.5000000000E-01  7.5000000000E-01
                       2.5899567413E-01  2.5899567413E-01  7.4100432587E-01
                       7.4100432587E-01  7.4100432587E-01  2.5899567413E-01
                       2.5899567413E-01  7.4100432587E-01  7.4100432587E-01
                       7.4100432587E-01  2.5899567413E-01  7.4100432587E-01
                       2.5899567413E-01  7.4100432587E-01  2.5899567413E-01
                       7.4100432587E-01  2.5899567413E-01  2.5899567413E-01
                       9.6145817337E-20 -3.7799498059E-20 -7.7170405668E-20
             xred6     2.5000000000E-01  2.5000000000E-01  2.5000000000E-01
                       7.5000000000E-01  7.5000000000E-01  7.5000000000E-01
                       2.5913084150E-01  2.5913084150E-01  7.4086915850E-01
                       7.4086915850E-01  7.4086915850E-01  2.5913084150E-01
                       2.5913084150E-01  7.4086915850E-01  7.4086915850E-01
                       7.4086915850E-01  2.5913084150E-01  7.4086915850E-01
                       2.5913084150E-01  7.4086915850E-01  2.5913084150E-01
                       7.4086915850E-01  2.5913084150E-01  2.5913084150E-01
                       1.1721414971E-19 -1.3280847532E-20 -1.2665758279E-19
             xred7     2.5000000000E-01  2.5000000000E-01  2.5000000000E-01
                       7.5000000000E-01  7.5000000000E-01  7.5000000000E-01
                       2.5926753136E-01  2.5926753136E-01  7.4073246864E-01
                       7.4073246864E-01  7.4073246864E-01  2.5926753136E-01
                       2.5926753136E-01  7.4073246864E-01  7.4073246864E-01
                       7.4073246864E-01  2.5926753136E-01  7.4073246864E-01
                       2.5926753136E-01  7.4073246864E-01  2.5926753136E-01
                       7.4073246864E-01  2.5926753136E-01  2.5926753136E-01
                       1.0981229173E-19 -2.7102282300E-20 -8.8726654929E-20
             xred8     2.5000000000E-01  2.5000000000E-01  2.5000000000E-01
                       7.5000000000E-01  7.5000000000E-01  7.5000000000E-01
                       2.5940132491E-01  2.5940132491E-01  7.4059867509E-01
                       7.4059867509E-01  7.4059867509E-01  2.5940132491E-01
                       2.5940132491E-01  7.4059867509E-01  7.4059867509E-01
                       7.4059867509E-01  2.5940132491E-01  7.4059867509E-01
                       2.5940132491E-01  7.4059867509E-01  2.5940132491E-01
                       7.4059867509E-01  2.5940132491E-01  2.5940132491E-01
                       1.0123423905E-19 -1.2874328738E-20 -1.1730165767E-19
             xred9     2.5000000000E-01  2.5000000000E-01  2.5000000000E-01
                       7.5000000000E-01  7.5000000000E-01  7.5000000000E-01
                       2.5953477109E-01  2.5953477109E-01  7.4046522891E-01
                       7.4046522891E-01  7.4046522891E-01  2.5953477109E-01
                       2.5953477109E-01  7.4046522891E-01  7.4046522891E-01
                       7.4046522891E-01  2.5953477109E-01  7.4046522891E-01
                       2.5953477109E-01  7.4046522891E-01  2.5953477109E-01
                       7.4046522891E-01  2.5953477109E-01  2.5953477109E-01
                       1.1147862229E-19 -1.4042333385E-20 -1.2266027113E-19
         
diemac 12.0
ecut 16
pawecutdg 40
ixc -101130
kptopt 1
ngkpt 16 16 16
prtden 1
iscf 17
nstep 2500
nshiftk 1
shiftk  0 0 0
nband 42
toldfe 1.0d-8
