            acell     1.4855053973E+01  1.5002678802E+01  1.4855053973E+01
            rprim     0.0000000000E+00  7.0000924098E-01  7.1413378476E-01
                       7.0710678119E-01  0.0000000000E+00  7.0710678119E-01
                       7.1413378476E-01  7.0000924098E-01  0.0000000000E+00
natom    9  
ntypat   4
typat 1 1 4 2 2 2 2 2 3 
      
znucl    55 53 72 35
             xred     2.4910634068E-01  2.5089365932E-01  2.4910634068E-01
                       7.4910634068E-01  7.5089365932E-01  7.4910634068E-01
                       7.5890801716E-01  2.4109198284E-01  7.5890801716E-01
                       2.5167093501E-01  2.5237693443E-01  7.4762306557E-01
                       7.4762306557E-01  7.4832906499E-01  2.5167093501E-01
                       2.5067382619E-01  7.4932617381E-01  2.5067382619E-01
                       2.5167093501E-01  7.4832906499E-01  7.4762306557E-01
                       7.4762306557E-01  2.5237693443E-01  2.5167093501E-01
                      -6.3793259011E-03  6.3793259011E-03 -6.3793259011E-03
         
diemac 12.0
ecut 20
ixc 32
kptopt 1
ngkpt 12 12 12
prtden 1
iscf 17
nstep 2500
nshiftk 1
shiftk  0 0 0
nband 42
toldfe 1.0d-8
