ndtset 9
acell      1.6056750671E+01  1.6056750671E+01  1.6056750671E+01
rprim1    0 0.63568899628981 0.63568899628981
          0.63568899628981 0 0.63568899628981
          0.63568899628981 0.63568899628981 0

rprim2    0 0.63498188950862 0.63498188950862
          0.63498188950862 0 0.63498188950862
          0.63498188950862 0.63498188950862 0

rprim3    0 0.63427478272743 0.63427478272743
          0.63427478272743 0 0.63427478272743
          0.63427478272743 0.63427478272743 0

rprim4    0 0.63356767594624 0.63356767594624
          0.63356767594624 0 0.63356767594624
          0.63356767594624 0.63356767594624 0

rprim5    0 0.63286056916505 0.63286056916505
          0.63286056916505 0 0.63286056916505
          0.63286056916505 0.63286056916505 0

rprim6    0 0.63215346238386 0.63215346238386
          0.63215346238386 0 0.63215346238386
          0.63215346238386 0.63215346238386 0

rprim7    0 0.63144635560267 0.63144635560267
          0.63144635560267 0 0.63144635560267
          0.63144635560267 0.63144635560267 0

rprim8    0 0.63073924882148 0.63073924882148
          0.63073924882148 0 0.63073924882148
          0.63073924882148 0.63073924882148 0

rprim9    0 0.63003214204029 0.63003214204029
          0.63003214204029 0 0.63003214204029
          0.63003214204029 0.63003214204029 0

natom    9  
ntypat   3  
typat    1 1 2 2 2 2 2 2 3  
znucl    55 53 40  
             xred      2.5000000000E-01  2.5000000000E-01  2.5000000000E-01
                       7.5000000000E-01  7.5000000000E-01  7.5000000000E-01
                       2.5966755445E-01  2.5966755445E-01  7.4033244555E-01
                       7.4033244555E-01  7.4033244555E-01  2.5966755445E-01
                       2.5966755445E-01  7.4033244555E-01  7.4033244555E-01
                       7.4033244555E-01  2.5966755445E-01  7.4033244555E-01
                       2.5966755445E-01  7.4033244555E-01  2.5966755445E-01
                       7.4033244555E-01  2.5966755445E-01  2.5966755445E-01
                       1.1721414971E-19 -1.3280847532E-20 -1.2665758279E-19
         
diemac 12.0
ecut 16
pawecutdg 40
ixc -101130
kptopt 1
ngkpt 4 4 4
prtden 1
iscf 17
nstep 2500
prtwf 0
nshiftk 4
shiftk  0.5 0.5 0.5
        0.5 0.0 0.0
        0.0 0.5 0.0
        0.0 0.0 0.5
nband 42

toldff 1.0d-8
tolmxf 1.0d-5
ionmov 2
optcell 0
ecutsm 0.5
dilatmx 1.15
