            acell     1.4354095397E+01  1.4354095397E+01  1.4722767050E+01
            rprim     0.0000000000E+00  7.2526816430E-01  6.8846647693E-01
                       7.2526816430E-01  0.0000000000E+00  6.8846647693E-01
                       7.0710678119E-01  7.0710678119E-01  0.0000000000E+00
natom    9  
ntypat   4  
            typat    1 1 4 4 2 2 2 2 3
znucl    55 53 40 35
             xred     2.5000000000E-01  2.5000000000E-01  2.5000000000E-01
                       7.5000000000E-01  7.5000000000E-01  7.5000000000E-01
                       2.4785549522E-01  2.4785549522E-01  7.5214450478E-01
                       7.5214450478E-01  7.5214450478E-01  2.4785549522E-01
                       2.5712048971E-01  7.4287951029E-01  7.4287951029E-01
                       7.4287951029E-01  2.5712048971E-01  7.4287951029E-01
                       2.5712048971E-01  7.4287951029E-01  2.5712048971E-01
                       7.4287951029E-01  2.5712048971E-01  2.5712048971E-01
                       3.0979805267E-23  1.1449405808E-21 -2.0404166112E-22
         
diemac 12.0
ecut 20
ixc 32
kptopt 1
ngkpt 12 12 12
prtden 1
iscf 17
nstep 2500
nshiftk 1
shiftk  0 0 0
nband 42
toldfe 1.0d-8
