            acell     1.4024690256E+01  1.4024690256E+01  1.4024690256E+01
            rprim      0.0000000000E+00  7.0710678119E-01  7.0710678119E-01
                       7.0710678119E-01  0.0000000000E+00  7.0710678119E-01
                       7.0710678119E-01  7.0710678119E-01  0.0000000000E+00
natom    9  
ntypat   3
typat  1 1 2 2 2 2 2 2 3
      
znucl    55 35 72
             xred     2.5000000000E-01  2.5000000000E-01  2.5000000000E-01
                       7.5000000000E-01  7.5000000000E-01  7.5000000000E-01
                       7.5203453044E-01  2.4796546956E-01  7.5203453044E-01
                       2.4796546956E-01  2.4796546956E-01  7.5203453044E-01
                       7.5203453044E-01  7.5203453044E-01  2.4796546956E-01
                       2.4796546956E-01  7.5203453044E-01  2.4796546956E-01
                       2.4796546956E-01  7.5203453044E-01  7.5203453044E-01
                       7.5203453044E-01  2.4796546956E-01  2.4796546956E-01
                      -4.2151291083E-20  3.6284166464E-19 -7.6525162933E-20
         
diemac 12.0
ecut 20
ixc -428
kptopt 1
ngkpt 2 2 2
prtden 1
iscf 17
nstep 2500
nshiftk 1
shiftk  0 0 0
nband 42
toldfe 1.0d-8
npkpt 4
#getwfk_filepath "Cs2TiI6i_WFK"
