            acell     1.4502578087E+01  1.4551826274E+01  1.4502578087E+01
            rprim     0.0000000000E+00  7.0469738977E-01  7.0950799069E-01
                       7.0710678119E-01  0.0000000000E+00  7.0710678119E-01
                       7.0950799069E-01  7.0469738977E-01  0.0000000000E+00
natom    9  
ntypat   4
typat    1 1 2 4 4 2 4 4 3 
      
znucl    55 53 72 35
             xred     2.5000000000E-01  2.5000000000E-01  2.5000000000E-01
                       7.5000000000E-01  7.5000000000E-01  7.5000000000E-01
                       7.3729396659E-01  2.6270603341E-01  7.3729396659E-01
                       2.3897054941E-01  2.3897054941E-01  7.6102945059E-01
                       7.6102945059E-01  7.6102945059E-01  2.3897054941E-01
                       2.6270603341E-01  7.3729396659E-01  2.6270603341E-01
                       2.3897054941E-01  7.6102945059E-01  7.6102945059E-01
                       7.6102945059E-01  2.3897054941E-01  2.3897054941E-01
                      -5.7472489725E-22  1.1961398034E-21 -4.7079764978E-22
         
diemac 12.0
ecut 20
ixc -428
kptopt 1
ngkpt 2 2 2
prtden 1
iscf 17
nstep 2500
nshiftk 1
shiftk  0 0 0
nband 42
toldfe 1.0d-8
npkpt 4
#getwfk_filepath "Cs2TiI6i_WFK"
