acell      1.5675778517E+01  1.5953965580E+01  1.5675778517E+01
            rprim     0.0000000000E+00  6.9433150207E-01  7.1965531001E-01
                       7.0710678119E-01  0.0000000000E+00  7.0710678119E-01
                       7.1965531001E-01  6.9433150207E-01  0.0000000000E+00 

natom    9  
ntypat   4  

typat 1 1 4 2 2 4 2 2 3  
      
znucl    55 53 72 35
             xred      2.5001094227E-01  2.4998905773E-01  2.5001094227E-01
                       7.5001094227E-01  7.4998905773E-01  7.5001094227E-01
                       7.7418298616E-01  2.2581701384E-01  7.7418298616E-01
                       2.4116131792E-01  2.4116383406E-01  7.5883616594E-01
                       7.5883616594E-01  7.5883868208E-01  2.4116131792E-01
                       2.2580771996E-01  7.7419228004E-01  2.2580771996E-01
                       2.4116131792E-01  7.5883868208E-01  7.5883616594E-01
                       7.5883616594E-01  2.4116383406E-01  2.4116131792E-01
                      -4.3583760678E-06  4.3583760678E-06 -4.3583760678E-06
         
diemac 12.0
ecut 16
pawecutdg 40
ixc -101130
kptopt 1
ngkpt 12 12 12
prtden 1
iscf 17
nstep 2500
prtwf 0
nshiftk 1
shiftk 0 0 0
nband 42
toldfe 1.0d-8
