 ndtset 6

#First dataset : SC run with kpoints in the IBZ
  nband1  42     
  nstep1 200
 kptopt1 1
 nbdbuf1 0
 prtden1 1   getden1 0   getwfk1 0    # Usual file handling data
# getwfk_filepath1 "Cs2TiI6i_WFK"
 
#Second dataset : NSC run with large number of bands, and points in the IBZ
    iscf2 -2  
   nstep2 200
  kptopt2  1
  getwfk2  1   getden2 1   # Usual file handling data

#Third dataset : NSC run with large number of bands, and points in the full BZ 
    iscf3 -2  
   nstep3 100
  getwfk3  2   getden3 1   # Usual file handling data


#Fourth dataset : ddk response function along axis 1
   iscf4 -3
  nstep4  1  nline4  0  prtwf4  3   # Speed up the calculation : the first-order response wavefunction is not computed, only the matrix elements.

   nqpt4  1  
  rfdir4  1 0 0
 rfelfd4  2

#Fifth dataset : ddk response function along axis 2
   iscf5 -3
  nstep5  1  nline5  0   prtwf5  3   # Speed up the calculation : the first-order response wavefunction is not computed, only the matrix elements.

   nqpt5  1  
  rfdir5  0 1 0
 rfelfd5  2

#Sixth dataset : ddk response function along axis 3
   iscf6 -3
  nstep6  1  nline6  0    prtwf6  3   # Speed up the calculation : the first-order response wavefunction is not computed, only the matrix elements.

   nqpt6  1  
  rfdir6  0 0 1
 rfelfd6  2

# Data common to datasets 2-6
  nband  100      # This number of bands might be too low for non-linear optics and real part of linear optics

# Data common to datasets 3-6
 kptopt   2      # Need points in the full BZ for non-linear optical properties

# Data common to datasets 4-6
  getwfk  3

#Data common to all datasets
 nshiftk 4
 shiftk  0.5 0.5 0.5
         0.5 0.0 0.0
         0.0 0.5 0.0
         0.0 0.0 0.5
 ngkpt  6 6 6        # This is much too low : should be at least 24x24x24
   qpt  0.0 0.0 0.0     # Not really needed, because it is the defaults, but mentioned here to keep track of its importance for datasets 4-6

            acell     1.5732211373E+01  1.5558035595E+01  1.5560876377E+01
            rprim     0.0000000000E+00  7.0723305084E-01  7.0698048898E-01
                       6.9923151623E-01  0.0000000000E+00  7.1489529772E-01
                       6.9910386505E-01  7.1502012970E-01  0.0000000000E+00

natom    9  
ntypat   4  

            typat 1 1 4 2 4 2 2 4 3
      
znucl    55 53 40 35 

             xred     2.5105665925E-01  2.5105665925E-01  2.4894334075E-01
                       7.5105665925E-01  7.5105665925E-01  7.4894334075E-01
                       2.2870538068E-01  2.2870538068E-01  7.7129461932E-01
                       7.5816372969E-01  7.5816372969E-01  2.4183627031E-01
                       2.3049237028E-01  7.7391338494E-01  7.6950762972E-01
                       7.5430575938E-01  2.4699604205E-01  7.5300395795E-01
                       2.4699604205E-01  7.5430575938E-01  2.4569424062E-01
                       7.7391338494E-01  2.3049237028E-01  2.2608661506E-01
                       5.3100144914E-03  5.3100144914E-03 -5.3100144914E-03

diemac 12.0
ecut 16
pawecutdg 40
ixc -101130
nbdbuf 2
tolwfr 1.0d-18
