acell 15.034787014332 15.034787014332 15.034787014332
            rprim      0.0000000000E+00  7.0710678119E-01  7.0710678119E-01
                       7.0710678119E-01  0.0000000000E+00  7.0710678119E-01
                       7.0710678119E-01  7.0710678119E-01  0.0000000000E+00 
natom    9  
ntypat   3  
typat    1 1 2 2 2 2 2 2 3  
znucl    55 53 72  
             xred     2.5000000000E-01  2.5000000000E-01  2.5000000000E-01
                       7.5000000000E-01  7.5000000000E-01  7.5000000000E-01
                       7.4892757208E-01  2.5107242792E-01  7.4892757208E-01
                       2.5107242792E-01  2.5107242792E-01  7.4892757208E-01
                       7.4892757208E-01  7.4892757208E-01  2.5107242792E-01
                       2.5107242792E-01  7.4892757208E-01  2.5107242792E-01
                       2.5107242792E-01  7.4892757208E-01  7.4892757208E-01
                       7.4892757208E-01  2.5107242792E-01  2.5107242792E-01
                       4.4914680573E-21  1.8228231789E-20 -2.0816064078E-20

         
diemac 12.0
ecut 20
ixc -428
kptopt 1
ngkpt 2 2 2
prtden 1
iscf 17
nstep 2500
nshiftk 1
shiftk  0 0 0
nband 42
toldfe 1.0d-8
npkpt 4
#getwfk_filepath "Cs2TiI6i_WFK"
