            acell    1.3727327145E+01  1.3727327145E+01  1.3727327145E+01
            rprim      0.0000000000E+00  7.0710678119E-01  7.0710678119E-01
                       7.0710678119E-01  0.0000000000E+00  7.0710678119E-01
                       7.0710678119E-01  7.0710678119E-01  0.0000000000E+00
natom    9  
ntypat   3
typat  1 1 2 2 2 2 2 2 3 
znucl    55 35 40
             xred    2.5000000000E-01  2.5000000000E-01  2.5000000000E-01
                       7.5000000000E-01  7.5000000000E-01  7.5000000000E-01
                       2.5339680518E-01  2.5339680518E-01  7.4660319482E-01
                       7.4660319482E-01  7.4660319482E-01  2.5339680518E-01
                       2.5339680518E-01  7.4660319482E-01  7.4660319482E-01
                       7.4660319482E-01  2.5339680518E-01  7.4660319482E-01
                       2.5339680518E-01  7.4660319482E-01  2.5339680518E-01
                       7.4660319482E-01  2.5339680518E-01  2.5339680518E-01
                      -6.8504685253E-21 -9.0127261350E-22  1.2368794387E-20
         
diemac 12.0
ecut 20
ixc 32
kptopt 1
ngkpt 12 12 12
prtden 1
iscf 17
nstep 2500
nshiftk 1
shiftk  0 0 0
nband 42
toldfe 1.0d-8
