            acell     1.3569972478E+01  1.3569972478E+01  1.3569972478E+01
            rprim      0.0000000000E+00  7.0710678119E-01  7.0710678119E-01
                       7.0710678119E-01  0.0000000000E+00  7.0710678119E-01
                       7.0710678119E-01  7.0710678119E-01  0.0000000000E+00
natom    9  
ntypat   3
typat  1 1 2 2 2 2 2 2 3  
znucl    55 17 72
             xred     2.5000000000E-01  2.5000000000E-01  2.5000000000E-01
                       7.5000000000E-01  7.5000000000E-01  7.5000000000E-01
                       7.5851284660E-01  2.4148715340E-01  7.5851284660E-01
                       2.4148715340E-01  2.4148715340E-01  7.5851284660E-01
                       7.5851284660E-01  7.5851284660E-01  2.4148715340E-01
                       2.4148715340E-01  7.5851284660E-01  2.4148715340E-01
                       2.4148715340E-01  7.5851284660E-01  7.5851284660E-01
                       7.5851284660E-01  2.4148715340E-01  2.4148715340E-01
                      -1.7576304142E-20  2.1070120950E-21  1.6720771104E-20
         
diemac 12.0
ecut 20
ixc -428
kptopt 1
ngkpt 2 2 2
prtden 1
iscf 17
nstep 2500
nshiftk 1
shiftk  0 0 0
nband 42
toldfe 1.0d-8
npkpt 4
#getwfk_filepath "Cs2TiI6i_WFK"
